NAME : a280
COMMENT : Tour length 3388
TYPE : TOUR
DIMENSION : 280
TOUR_SECTION
1
280
3
5
6
274
273
272
271
16
17
18
133
269
270
134
135
136
268
267
137
138
266
265
264
263
262
261
260
259
258
257
254
253
208
209
252
255
256
249
248
278
279
4
277
276
275
9
7
8
10
11
12
13
14
24
23
25
22
26
27
28
29
124
123
122
121
120
119
157
158
159
160
175
172
171
170
169
168
167
166
165
164
163
162
161
174
173
106
107
110
111
112
88
83
82
81
89
91
92
97
96
95
94
93
98
99
100
101
102
103
105
104
108
109
90
80
79
76
75
74
73
72
71
70
67
66
64
65
85
84
87
113
114
115
117
118
61
60
43
42
41
40
39
38
37
36
35
34
33
32
31
30
125
126
127
128
129
154
155
153
156
152
151
177
176
181
182
183
184
185
187
188
189
190
191
192
193
201
196
195
194
197
198
199
145
146
147
142
143
144
200
202
203
204
205
215
214
211
210
207
212
213
216
221
220
217
218
219
222
223
224
225
226
227
228
229
230
251
250
247
246
231
238
239
240
245
244
243
242
2
241
237
232
233
234
235
236
206
141
140
139
148
149
150
178
179
180
186
116
86
63
62
59
44
45
56
57
58
68
69
55
54
53
52
51
50
49
48
47
46
77
78
130
21
20
19
132
131
15
1
-1
EOF